50, 13214
238, 275
545, 631
370, 442
604, 703
626, 660
66, 28
14, 99
838, 931
260, 341
235, 249
996, 1039
471, 413
837, 904
477, 492
640, 597
151, 63
635, 706
869, 967
524, 441
742, 802
672, 654
65, 25
759, 718
592, 646
302, 377
32, 6
866, 889
473, 382
719, 763
879, 845
715, 792
922, 1019
395, 396
801, 901
445, 407
936, 851
879, 899
98, 7
136, 75
217, 198
966, 988
437, 368
627, 535
302, 376
508, 471
386, 478
351, 431
586, 561
585, 577
905, 909
